Geographic Exponential Decay
80 120 290 71 1 74 295 22 60 263 97 68 37 165 174 230 135 58 271 95 193 283 175 287 92 138 9 302 123 213 197 91 223 245 237 278 210 218 47 104 264 208 303 63 90 125 108 66 203 267 143 305 191 158 159 40 199 154 75 89 293 202 56 262 236 5 301 27 18 106 167 214 50 151 102 34 198 142 118 127 300
p edge 320 321
e 0 249 1.0
e 1 165 14.0
e 1 199 33.0
e 1 78 62.0
e 1 0 95.0
e 2 267 75.0
e 2 1 22.0
e 3 125 1.0
e 3 2 1.0
e 4 303 24.0
e 5 199 31.0
e 5 206 20.0
e 5 60 98.0
e 6 260 4.0
e 6 3 1.0
e 7 25 6.0
e 7 6 1.0
e 8 244 2.0
e 8 7 2.0
e 9 34 38.0
e 9 10 91.0
e 9 104 98.0
e 9 8 58.0
e 11 155 25.0
e 11 9 41.0
e 12 13 1.0
e 12 11 2.0
e 14 42 1.0
e 14 12 1.0
e 15 16 2.0
e 15 14 1.0
e 17 59 1.0
e 17 15 1.0
e 18 316 62.0
e 18 213 35.0
e 18 215 59.0
e 18 17 32.0
e 19 191 87.0
e 19 18 9.0
e 20 98 4.0
e 20 19 2.0
e 21 246 1.0
e 21 20 2.0
e 22 214 81.0
e 22 23 80.0
e 22 51 70.0
e 22 21 1.0
e 24 213 15.0
e 26 141 1.0
e 26 22 74.0
e 27 201 56.0
e 27 311 53.0
e 27 263 5.0
e 28 214 66.0
e 29 30 1.0
e 29 26 2.0
e 31 118 8.0
e 31 29 10.0
e 32 95 42.0
e 33 34 89.0
e 34 252 39.0
e 35 152 4.0
e 35 31 5.0
e 36 287 20.0
e 36 35 7.0
e 37 167 58.0
e 37 45 31.0
e 37 317 87.0
e 38 67 2.0
e 38 36 3.0
e 39 223 32.0
e 39 38 10.0
e 40 210 44.0
e 40 86 32.0
e 40 173 99.0
e 41 198 44.0
e 43 303 31.0
e 44 216 3.0
e 44 39 1.0
e 46 75 11.0
e 46 44 1.0
e 47 138 54.0
e 47 48 40.0
e 47 117 55.0
e 47 46 80.0
e 49 129 14.0
e 49 47 74.0
e 50 131 100.0
e 50 52 27.0
e 50 241 62.0
e 50 49 49.0
e 53 140 4.0
e 53 50 42.0
e 54 55 2.0
e 54 53 1.0
e 56 57 62.0
e 56 87 32.0
e 56 278 52.0
e 58 238 31.0
e 58 81 78.0
e 58 281 17.0
e 58 54 48.0
e 60 301 45.0
e 60 61 14.0
e 62 124 2.0
e 62 58 54.0
e 63 318 13.0
e 63 64 79.0
e 63 75 47.0
e 65 312 2.0
e 65 62 3.0
e 66 153 61.0
e 66 74 97.0
e 66 262 94.0
e 68 269 97.0
e 68 162 42.0
e 68 69 53.0
e 68 65 29.0
e 70 84 7.0
e 70 68 36.0
e 71 221 85.0
e 71 284 44.0
e 71 72 75.0
e 71 70 59.0
e 73 74 94.0
e 74 181 11.0
e 75 179 89.0
e 76 226 5.0
e 76 71 25.0
e 77 245 78.0
e 77 76 11.0
e 79 203 31.0
e 80 143 60.0
e 80 77 2.0
e 82 190 4.0
e 82 80 2.0
e 83 157 1.0
e 83 82 2.0
e 85 183 5.0
e 85 83 1.0
e 88 247 5.0
e 88 85 7.0
e 89 299 3.0
e 89 182 49.0
e 89 90 29.0
e 89 88 31.0
e 90 289 45.0
e 90 196 45.0
e 91 293 59.0
e 91 113 52.0
e 91 94 51.0
e 92 99 11.0
e 92 93 90.0
e 92 307 70.0
e 92 89 20.0
e 95 104 88.0
e 95 96 41.0
e 97 229 44.0
e 97 100 100.0
e 97 207 80.0
e 97 92 91.0
e 101 102 25.0
e 102 118 33.0
e 102 130 7.0
e 103 319 3.0
e 103 97 40.0
e 104 105 13.0
e 106 126 28.0
e 106 114 87.0
e 106 107 7.0
e 106 103 26.0
e 108 109 63.0
e 108 294 9.0
e 108 313 47.0
e 108 106 62.0
e 110 111 3.0
e 110 108 63.0
e 112 292 1.0
e 112 110 1.0
e 115 116 4.0
e 115 112 3.0
e 118 282 39.0
e 119 120 42.0
e 119 115 1.0
e 120 136 13.0
e 120 121 54.0
e 122 189 2.0
e 122 119 1.0
e 123 125 32.0
e 123 127 10.0
e 123 261 96.0
e 125 176 98.0
e 127 265 25.0
e 127 156 91.0
e 128 239 1.0
e 128 122 1.0
e 132 133 5.0
e 132 128 1.0
e 134 255 1.0
e 134 132 2.0
e 135 137 17.0
e 135 211 67.0
e 135 138 51.0
e 138 259 24.0
e 139 223 94.0
e 142 248 75.0
e 142 147 80.0
e 142 143 72.0
e 143 277 19.0
e 144 145 2.0
e 144 134 1.0
e 146 148 2.0
e 146 144 2.0
e 149 222 1.0
e 149 146 5.0
e 150 185 1.0
e 150 149 1.0
e 151 287 9.0
e 151 159 63.0
e 151 154 15.0
e 154 295 66.0
e 154 158 33.0
e 158 262 89.0
e 158 159 3.0
e 159 160 88.0
e 161 163 2.0
e 161 150 1.0
e 164 165 34.0
e 165 166 36.0
e 167 202 67.0
e 167 263 1.0
e 168 169 4.0
e 168 161 1.0
e 170 205 1.0
e 170 168 3.0
e 171 273 1.0
e 171 170 1.0
e 172 174 59.0
e 174 175 20.0
e 174 278 6.0
e 175 177 100.0
e 175 253 8.0
e 178 180 2.0
e 178 171 1.0
e 184 186 2.0
e 184 178 2.0
e 187 188 1.0
e 187 184 1.0
e 191 192 35.0
e 191 293 87.0
e 193 194 45.0
e 193 195 19.0
e 193 210 61.0
e 197 225 88.0
e 197 198 36.0
e 197 199 16.0
e 198 200 13.0
e 202 278 7.0
e 202 204 46.0
e 203 293 62.0
e 203 208 81.0
e 208 209 22.0
e 208 210 13.0
e 212 213 9.0
e 214 217 78.0
e 218 219 84.0
e 218 220 21.0
e 218 223 43.0
e 224 227 1.0
e 224 187 2.0
e 228 230 47.0
e 228 224 1.0
e 230 231 79.0
e 230 232 65.0
e 233 234 2.0
e 233 228 1.0
e 235 236 55.0
e 235 233 1.0
e 236 296 20.0
e 236 315 90.0
e 237 240 83.0
e 237 242 37.0
e 237 250 8.0
e 237 235 8.0
e 243 245 25.0
e 245 274 68.0
e 251 254 5.0
e 251 237 7.0
e 256 257 3.0
e 256 251 4.0
e 258 262 78.0
e 263 264 22.0
e 264 266 17.0
e 264 267 29.0
e 267 283 4.0
e 268 270 1.0
e 268 256 2.0
e 271 272 49.0
e 271 275 80.0
e 271 276 66.0
e 271 268 69.0
e 279 280 11.0
e 279 271 20.0
e 283 285 42.0
e 283 286 8.0
e 287 288 72.0
e 290 291 69.0
e 290 295 29.0
e 290 297 66.0
e 295 298 33.0
e 300 301 66.0
e 300 302 61.0
e 300 303 37.0
e 301 302 93.0
e 302 304 60.0
e 305 306 44.0
e 305 308 33.0
e 305 309 33.0
e 305 279 67.0
e 310 314 3.0
e 310 305 47.0
